W=5;
H=5;

MAX_TIME=6;
MAX_TRACKS=3;

TARGET=(3,5);

TRAINS=[(3,1,RIGHT)];

INIT_POS=[
(1,3,STRAIGHT_TD),
(2,2,CORNER_DR),
(2,4,CORNER_DL),
(3,1,STRAIGHT_RL),
(3,3,ROCK),
(3,5,STRAIGHT_RL),
(4,2,CORNER_TR),
(4,4,CORNER_TL),
(5,3,STRAIGHT_TD),
];
TUNNEL_PAIRS=[];

GATES=[];
ACTIVATIONS=[];

DSWITCHES=[];

STATIONS=[];
